========================================================== 
File name: C:\DEGR\assets\definitions\MSRCPSP_Gen\100_40_64_10_A.def
Creation date: Wed May 03 10:39:38 CEST 2023
Website: http://imopse.ii.pwr.edu.pl/ 
Reference: 
Myszkowski P. B., Skowronski M. E., Olech L., Oslizlo K., 
Hybrid Ant Colony Optimization in solving Multi-Skill Resource-Constrained Project Scheduling Problem, 
Soft Computing, DOI: DOI 10.1007/s00500-014-1455-x 
========================================================== 
General characteristics: 
Tasks: 100
Resources: 40
Precedence relations: 64
Number of skill types: 10
========================================================== 
ResourceID 	 Salary 	 Skills 
1	 	 	37.5	 	 Q5: 2 	 
2	 	 	50.9	 	 Q8: 3 	 
3	 	 	70.9	 	 Q3: 2 	  Q0: 0 	  Q1: 2 	  Q7: 3 	  Q2: 3 	  Q4: 0 	  Q5: 2 	  Q8: 3 	 
4	 	 	41.6	 	 Q0: 3 	  Q7: 2 	  Q3: 0 	 
5	 	 	81.3	 	 Q0: 2 	  Q5: 2 	  Q7: 0 	  Q8: 2 	  Q6: 2 	  Q9: 3 	  Q3: 2 	  Q2: 0 	 
6	 	 	67.8	 	 Q0: 1 	  Q8: 3 	  Q4: 2 	  Q7: 1 	  Q6: 0 	  Q3: 2 	  Q9: 1 	  Q5: 1 	 
7	 	 	98.7	 	 Q0: 1 	  Q7: 0 	  Q4: 3 	  Q1: 1 	  Q6: 2 	  Q2: 1 	  Q5: 0 	  Q8: 3 	  Q3: 2 	 
8	 	 	72.6	 	 Q5: 1 	  Q9: 2 	  Q2: 2 	  Q3: 1 	  Q7: 3 	 
9	 	 	80.9	 	 Q5: 0 	  Q0: 3 	  Q9: 1 	  Q6: 2 	  Q3: 3 	  Q4: 2 	 
10	 	 	66.4	 	 Q6: 1 	 
11	 	 	28.6	 	 Q3: 2 	  Q8: 0 	  Q5: 2 	  Q1: 1 	  Q0: 1 	 
12	 	 	29.3	 	 Q6: 2 	  Q9: 0 	 
13	 	 	14.6	 	 Q1: 1 	  Q3: 3 	  Q7: 3 	  Q0: 1 	  Q9: 1 	  Q5: 1 	  Q6: 0 	 
14	 	 	67.1	 	 Q3: 3 	  Q0: 0 	  Q2: 2 	 
15	 	 	70.1	 	 Q2: 2 	  Q3: 2 	  Q6: 2 	  Q4: 1 	  Q8: 2 	  Q9: 1 	  Q5: 0 	  Q0: 2 	  Q7: 1 	 
16	 	 	62.3	 	 Q6: 1 	 
17	 	 	52.9	 	 Q4: 0 	  Q8: 3 	  Q3: 2 	  Q9: 0 	 
18	 	 	48.4	 	 Q7: 1 	  Q4: 1 	  Q5: 1 	  Q1: 3 	  Q2: 3 	  Q8: 0 	  Q9: 1 	  Q3: 1 	  Q6: 0 	 
19	 	 	69.1	 	 Q0: 2 	  Q5: 1 	  Q2: 0 	  Q1: 2 	  Q4: 0 	 
20	 	 	65.4	 	 Q9: 3 	  Q1: 0 	  Q6: 3 	  Q5: 1 	 
21	 	 	95.9	 	 Q2: 2 	  Q5: 1 	  Q1: 2 	 
22	 	 	46.6	 	 Q2: 0 	  Q0: 1 	 
23	 	 	54.0	 	 Q7: 1 	  Q8: 3 	  Q9: 0 	  Q0: 2 	  Q5: 2 	  Q1: 3 	  Q3: 0 	  Q6: 0 	 
24	 	 	30.5	 	 Q8: 0 	  Q7: 2 	  Q6: 2 	  Q1: 2 	  Q9: 1 	  Q3: 0 	  Q0: 0 	  Q2: 0 	 
25	 	 	56.9	 	 Q7: 1 	  Q1: 2 	  Q3: 2 	  Q0: 0 	  Q9: 2 	  Q6: 2 	  Q4: 1 	  Q2: 0 	 
26	 	 	12.9	 	 Q5: 3 	  Q0: 1 	  Q7: 2 	  Q8: 1 	 
27	 	 	79.0	 	 Q3: 1 	  Q5: 0 	  Q2: 2 	  Q1: 2 	  Q0: 3 	  Q6: 3 	  Q9: 2 	 
28	 	 	36.3	 	 Q4: 3 	  Q5: 3 	  Q0: 1 	 
29	 	 	93.1	 	 Q1: 1 	  Q0: 3 	 
30	 	 	77.0	 	 Q3: 3 	  Q1: 2 	  Q5: 3 	  Q4: 0 	  Q9: 3 	  Q8: 3 	  Q0: 2 	 
31	 	 	48.3	 	 Q9: 0 	  Q3: 3 	 
32	 	 	60.3	 	 Q9: 2 	  Q6: 3 	  Q7: 1 	  Q1: 2 	  Q2: 1 	  Q4: 1 	  Q0: 0 	 
33	 	 	98.7	 	 Q5: 1 	  Q6: 3 	  Q9: 2 	  Q8: 2 	 
34	 	 	37.2	 	 Q7: 3 	  Q1: 3 	  Q5: 0 	  Q0: 1 	  Q3: 1 	 
35	 	 	43.3	 	 Q2: 3 	  Q0: 2 	 
36	 	 	31.1	 	 Q4: 2 	  Q2: 1 	  Q1: 1 	  Q8: 2 	 
37	 	 	54.9	 	 Q6: 2 	  Q1: 1 	  Q7: 2 	 
38	 	 	33.4	 	 Q1: 3 	  Q2: 0 	  Q5: 3 	  Q7: 1 	  Q3: 2 	 
39	 	 	56.5	 	 Q4: 1 	  Q9: 2 	  Q5: 0 	  Q3: 2 	  Q7: 0 	  Q6: 1 	  Q8: 0 	 
40	 	 	81.1	 	 Q3: 0 	 
========================================================== 
TaskID 	 Duration 	 Skill 	 Predecessor IDs 
1	26	Q4:	0
2	37	Q6:	1
3	19	Q3:	2
4	29	Q7:	3
5	37	Q6:	3
6	18	Q5:	1
7	12	Q1:	1
8	35	Q1:	3
9	38	Q6:	0
10	40	Q5:	3
11	39	Q3:	1
12	37	Q3:	2
13	25	Q2:	0	9
14	24	Q0:	1
15	11	Q3:	1
16	21	Q7:	2
17	19	Q1:	1
18	38	Q8:	0
19	9	Q9:	3
20	16	Q6:	2
21	34	Q5:	1
22	40	Q9:	0
23	37	Q4:	0	4
24	30	Q8:	3
25	40	Q0:	3
26	28	Q1:	3	1	14
27	10	Q3:	0	14	24
28	39	Q7:	2
29	34	Q2:	3
30	28	Q8:	0	26
31	35	Q6:	1
32	27	Q7:	1
33	9	Q0:	3
34	28	Q6:	3
35	26	Q5:	2
36	37	Q0:	2
37	21	Q8:	0
38	21	Q0:	2	26
39	24	Q1:	1	30
40	40	Q7:	3
41	39	Q5:	3	32
42	30	Q6:	0
43	40	Q3:	2	39	4
44	27	Q0:	1
45	17	Q8:	1	38
46	22	Q8:	3
47	15	Q5:	3
48	17	Q7:	3
49	36	Q7:	1	19
50	27	Q4:	1
51	14	Q8:	0
52	11	Q3:	2	29	37
53	22	Q3:	1
54	35	Q1:	3
55	14	Q0:	0
56	32	Q8:	2	3	16
57	20	Q4:	2	19
58	36	Q8:	3	48	46	35
59	27	Q5:	1	23	20	38
60	24	Q4:	2
61	28	Q9:	3	27
62	23	Q2:	1	9
63	40	Q8:	3	4	39
64	39	Q8:	1	37
65	39	Q7:	2	52	16
66	24	Q7:	0
67	17	Q1:	3	9
68	24	Q4:	0
69	32	Q7:	0	32
70	15	Q0:	3
71	11	Q3:	3
72	31	Q8:	3	27	69
73	28	Q9:	3
74	26	Q9:	2	14
75	37	Q3:	1
76	30	Q7:	3
77	10	Q3:	2
78	30	Q4:	3	15
79	11	Q8:	1	1	32
80	16	Q8:	0	78
81	27	Q1:	3
82	9	Q0:	3
83	29	Q7:	2	77
84	35	Q0:	2
85	12	Q1:	0	21	38
86	38	Q0:	3
87	33	Q5:	0	34
88	9	Q7:	2	77	32
89	16	Q7:	1	9
90	20	Q6:	3	75	17
91	38	Q0:	1	32
92	17	Q6:	2	32	27	11
93	17	Q8:	3	63
94	23	Q4:	2	50	67
95	32	Q0:	1
96	35	Q6:	3
97	32	Q8:	3	65	82	14
98	9	Q2:	3	1
99	35	Q5:	2	44	12
100	17	Q8:	0	9
========================================================== 